8,5	0,0	19,2	7,7	0,0	0,0	0,0	0,0	0,0	11,6
16,7	9,6	0,0	11,9	13,7	0,0	0,0	14,9	0,0	0,0
0,0	0,0	19,4	0,0	8,3	10,2	0,0	0,0	12,8	0,0
15,8	0,0	15,5	0,0	0,0	0,0	10,2	0,0	0,0	0,0
0,0	11,3	0,0	14,4	18,2	0,0	0,0	15,9	0,0	0,0
0,0	8,0	16,1	0,0	17,0	13,4	0,0	0,0	13,2	0,0
0,0	18,9	0,0	9,1	0,0	0,0	12,8	0,0	0,0	19,3
5,6	0,0	14,3	0,0	0,0	0,0	0,0	0,0	0,0	12,2
0,0	11,2	0,0	17,1	8,4	0,0	0,0	19,0	0,0	0,0
0,0	0,0	12,8	0,0	0,0	9,0	10,4	0,0	0,0	9,2
									
3,5	3,2	3,6	4,0	2,7	4,4	3,4	4,1	3,1	2,7
